CIF file                                
   1.00000000000000     
    14.0000000000000000    0.0000000000000000    0.0000000000000000
     0.0000000000000000    7.3800001143999996    0.0000000000000000
     0.0000000000000000    0.0000000000000000   29.8199996947999999
   C    O    H 
  83   1   1
Selective dynamics
Direct
  0.8066300150000032  0.1269500260000029  0.0253199989999970   F   F   F
  0.8066300150000032  0.1269500260000029  0.1205599979999974   F   F   F
  0.8066300150000032  0.2936099770000027  0.0491299999999981   F   F   F
  0.8066300150000032  0.2936099770000027  0.0967499989999965   F   F   F
  0.8074069489365741  0.1310522390989206  0.1686537902395955   T   T   T
  0.8117593792378841  0.1371928384426653  0.2649087343039866   T   T   T
  0.8080763604729739  0.2988403160886079  0.1927386445036419   T   T   T
  0.8102515521557763  0.3024724156731295  0.2407437693661123   T   T   T
  0.8138650694943337  0.1410794881480868  0.3129725774943353   T   T   T
  0.8116831396954751  0.1494981079097144  0.4102227604484270   T   T   T
  0.8139090703744856  0.3083501957495827  0.3371771776589796   T   T   T
  0.8124859691052393  0.3120665934933058  0.3852878928569154   T   T   T
  0.8080979655840821  0.1550783816553363  0.4590001935510912   T   T   T
  0.8115517568091946  0.1323473930455634  0.5517870607988584   T   T   T
  0.8061336155676599  0.3237730158978422  0.4861222537731038   T   T   T
  0.8118763415551200  0.3156959416011205  0.5373551087537791   T   T   T
  0.8066300150000032  0.4602799419999997  0.0253199989999970   F   F   F
  0.8066300150000032  0.4602799419999997  0.1205599979999974   F   F   F
  0.8066300150000032  0.6269500260000029  0.0491299999999981   F   F   F
  0.8066300150000032  0.6269500260000029  0.0967499989999965   F   F   F
  0.8075587873469487  0.4644601079127781  0.1686480485284321   T   T   T
  0.8113598221552536  0.4702091140717641  0.2649155296292349   T   T   T
  0.8086033166625413  0.6323433449236830  0.1928174071494198   T   T   T
  0.8104894055894505  0.6360236545667419  0.2408699037105890   T   T   T
  0.8127639684617520  0.4735542206904029  0.3128788262598903   T   T   T
  0.8068799378674925  0.4780865165121924  0.4096684918616447   T   T   T
  0.8123193225554459  0.6410416935506120  0.3370327131179138   T   T   T
  0.8094521351693658  0.6437354137811440  0.3849092807079089   T   T   T
  0.7964322387835381  0.4814054590292329  0.4576952142421362   T   T   T
  0.7793654152591074  0.6531533464153867  0.4777110806995069   T   T   T
  0.7422379406908703  0.6685247190361281  0.5213076507470831   T   T   T
  0.8066300150000032  0.7936099770000027  0.0253199989999970   F   F   F
  0.8066300150000032  0.7936099770000027  0.1205599979999974   F   F   F
  0.8066300150000032  0.9602799419999997  0.0491299999999981   F   F   F
  0.8066300150000032  0.9602799419999997  0.0967499989999965   F   F   F
  0.8076204288689013  0.7978127257286687  0.1686598347388824   T   T   T
  0.8116651741924414  0.8038226228473775  0.2650764161056429   T   T   T
  0.8082497091501750  0.9655793565065878  0.1928284072230042   T   T   T
  0.8105114001393829  0.9692173498880408  0.2408613438872464   T   T   T
  0.8132001013631651  0.8076061022534162  0.3131629594001168   T   T   T
  0.8102658489039598  0.8129227551926235  0.4080885273571013   T   T   T
  0.8141487909031397  0.9762871880323942  0.3372608969025279   T   T   T
  0.8135039598742821  0.9811101278137073  0.3853208161523369   T   T   T
  0.7999940941194481  0.8172434146709122  0.4550748695420452   T   T   T
  0.7787722376448443  0.8078562166399834  0.5482902048587732   T   T   T
  0.8015274177584502  0.9830232933248624  0.4793153781403845   T   T   T
  0.7991829850617123  0.9743080992229025  0.5262199997733603   T   T   T
  0.8139483358193544  0.1091531344320558  0.5982878538118044   T   T   T
  0.8158173129802790  0.1140133075967213  0.6907780133931780   T   T   T
  0.8174449414971647  0.2785871488581222  0.6194145098000661   T   T   T
  0.8168463470787870  0.2815246987415208  0.6668868405120634   T   T   T
  0.8129784012933641  0.1172514022519522  0.7384722924365619   T   T   T
  0.8079692666079268  0.1226576058003985  0.8343145465053041   T   T   T
  0.8115430105995429  0.2857689369541490  0.7623139451783629   T   T   T
  0.8089741023707191  0.2887449244992411  0.8102920888352969   T   T   T
  0.8066300150000032  0.1269500260000029  0.8824599980000016   F   F   F
  0.8066300150000032  0.1269500260000029  0.9776999950000018   F   F   F
  0.8066300150000032  0.2936099770000027  0.9062700269999979   F   F   F
  0.8066300150000032  0.2936099770000027  0.9538900260000034   F   F   F
  0.8137296356843748  0.4263786116089605  0.5887274320759346   T   T   T
  0.8148056108095219  0.4488641288834287  0.6899250058104442   T   T   T
  0.8076016870802221  0.6023177844044199  0.6134947320511017   T   T   T
  0.8124036815463427  0.6088579269165066  0.6635662135801255   T   T   T
  0.8126140219154649  0.4515701215253358  0.7381503275567738   T   T   T
  0.8078849611710623  0.4562922138735885  0.8344523003778832   T   T   T
  0.8105896317675629  0.6178973951433022  0.7623690785195620   T   T   T
  0.8085859318707449  0.6216677916199203  0.8103528210025601   T   T   T
  0.8066300150000032  0.4602799419999997  0.8824599980000016   F   F   F
  0.8066300150000032  0.4602799419999997  0.9776999950000018   F   F   F
  0.8066300150000032  0.6269500260000029  0.9062700269999979   F   F   F
  0.8066300150000032  0.6269500260000029  0.9538900260000034   F   F   F
  0.7962290237392082  0.7801913027462604  0.5946294542581114   T   T   T
  0.8123236412195141  0.7766001014964274  0.6894897587288540   T   T   T
  0.8097837208022938  0.9421791530397101  0.6200459994069405   T   T   T
  0.8143043430769126  0.9449877264218500  0.6674216151804941   T   T   T
  0.8114563525299090  0.7817988178640149  0.7377502530486595   T   T   T
  0.8077450096280643  0.7894665920261730  0.8344194581418876   T   T   T
  0.8109347753406269  0.9504748869536712  0.7620326640079540   T   T   T
  0.8087499667335507  0.9545882349281811  0.8101687182928075   T   T   T
  0.8066300150000032  0.7936099770000027  0.8824599980000016   F   F   F
  0.8066300150000032  0.7936099770000027  0.9776999950000018   F   F   F
  0.8066300150000032  0.9602799419999997  0.9062700269999979   F   F   F
  0.8066300150000032  0.9602799419999997  0.9538900260000034   F   F   F
  0.6741356156704725  0.5601010623720910  0.5385187390722379   T   T   T
  0.6690027353204613  0.4485775890608537  0.5207730449783838   T   T   T
 
  0.00000000E+00  0.00000000E+00  0.00000000E+00
  0.00000000E+00  0.00000000E+00  0.00000000E+00
  0.00000000E+00  0.00000000E+00  0.00000000E+00
  0.00000000E+00  0.00000000E+00  0.00000000E+00
  0.00000000E+00  0.00000000E+00  0.00000000E+00
  0.00000000E+00  0.00000000E+00  0.00000000E+00
  0.00000000E+00  0.00000000E+00  0.00000000E+00
  0.00000000E+00  0.00000000E+00  0.00000000E+00
  0.00000000E+00  0.00000000E+00  0.00000000E+00
  0.00000000E+00  0.00000000E+00  0.00000000E+00
  0.00000000E+00  0.00000000E+00  0.00000000E+00
  0.00000000E+00  0.00000000E+00  0.00000000E+00
  0.00000000E+00  0.00000000E+00  0.00000000E+00
  0.00000000E+00  0.00000000E+00  0.00000000E+00
  0.00000000E+00  0.00000000E+00  0.00000000E+00
  0.00000000E+00  0.00000000E+00  0.00000000E+00
  0.00000000E+00  0.00000000E+00  0.00000000E+00
  0.00000000E+00  0.00000000E+00  0.00000000E+00
  0.00000000E+00  0.00000000E+00  0.00000000E+00
  0.00000000E+00  0.00000000E+00  0.00000000E+00
  0.00000000E+00  0.00000000E+00  0.00000000E+00
  0.00000000E+00  0.00000000E+00  0.00000000E+00
  0.00000000E+00  0.00000000E+00  0.00000000E+00
  0.00000000E+00  0.00000000E+00  0.00000000E+00
  0.00000000E+00  0.00000000E+00  0.00000000E+00
  0.00000000E+00  0.00000000E+00  0.00000000E+00
  0.00000000E+00  0.00000000E+00  0.00000000E+00
  0.00000000E+00  0.00000000E+00  0.00000000E+00
  0.00000000E+00  0.00000000E+00  0.00000000E+00
  0.00000000E+00  0.00000000E+00  0.00000000E+00
  0.00000000E+00  0.00000000E+00  0.00000000E+00
  0.00000000E+00  0.00000000E+00  0.00000000E+00
  0.00000000E+00  0.00000000E+00  0.00000000E+00
  0.00000000E+00  0.00000000E+00  0.00000000E+00
  0.00000000E+00  0.00000000E+00  0.00000000E+00
  0.00000000E+00  0.00000000E+00  0.00000000E+00
  0.00000000E+00  0.00000000E+00  0.00000000E+00
  0.00000000E+00  0.00000000E+00  0.00000000E+00
  0.00000000E+00  0.00000000E+00  0.00000000E+00
  0.00000000E+00  0.00000000E+00  0.00000000E+00
  0.00000000E+00  0.00000000E+00  0.00000000E+00
  0.00000000E+00  0.00000000E+00  0.00000000E+00
  0.00000000E+00  0.00000000E+00  0.00000000E+00
  0.00000000E+00  0.00000000E+00  0.00000000E+00
  0.00000000E+00  0.00000000E+00  0.00000000E+00
  0.00000000E+00  0.00000000E+00  0.00000000E+00
  0.00000000E+00  0.00000000E+00  0.00000000E+00
  0.00000000E+00  0.00000000E+00  0.00000000E+00
  0.00000000E+00  0.00000000E+00  0.00000000E+00
  0.00000000E+00  0.00000000E+00  0.00000000E+00
  0.00000000E+00  0.00000000E+00  0.00000000E+00
  0.00000000E+00  0.00000000E+00  0.00000000E+00
  0.00000000E+00  0.00000000E+00  0.00000000E+00
  0.00000000E+00  0.00000000E+00  0.00000000E+00
  0.00000000E+00  0.00000000E+00  0.00000000E+00
  0.00000000E+00  0.00000000E+00  0.00000000E+00
  0.00000000E+00  0.00000000E+00  0.00000000E+00
  0.00000000E+00  0.00000000E+00  0.00000000E+00
  0.00000000E+00  0.00000000E+00  0.00000000E+00
  0.00000000E+00  0.00000000E+00  0.00000000E+00
  0.00000000E+00  0.00000000E+00  0.00000000E+00
  0.00000000E+00  0.00000000E+00  0.00000000E+00
  0.00000000E+00  0.00000000E+00  0.00000000E+00
  0.00000000E+00  0.00000000E+00  0.00000000E+00
  0.00000000E+00  0.00000000E+00  0.00000000E+00
  0.00000000E+00  0.00000000E+00  0.00000000E+00
  0.00000000E+00  0.00000000E+00  0.00000000E+00
  0.00000000E+00  0.00000000E+00  0.00000000E+00
  0.00000000E+00  0.00000000E+00  0.00000000E+00
  0.00000000E+00  0.00000000E+00  0.00000000E+00
  0.00000000E+00  0.00000000E+00  0.00000000E+00
  0.00000000E+00  0.00000000E+00  0.00000000E+00
  0.00000000E+00  0.00000000E+00  0.00000000E+00
  0.00000000E+00  0.00000000E+00  0.00000000E+00
  0.00000000E+00  0.00000000E+00  0.00000000E+00
  0.00000000E+00  0.00000000E+00  0.00000000E+00
  0.00000000E+00  0.00000000E+00  0.00000000E+00
  0.00000000E+00  0.00000000E+00  0.00000000E+00
  0.00000000E+00  0.00000000E+00  0.00000000E+00
  0.00000000E+00  0.00000000E+00  0.00000000E+00
  0.00000000E+00  0.00000000E+00  0.00000000E+00
  0.00000000E+00  0.00000000E+00  0.00000000E+00
  0.00000000E+00  0.00000000E+00  0.00000000E+00
  0.00000000E+00  0.00000000E+00  0.00000000E+00
  0.00000000E+00  0.00000000E+00  0.00000000E+00
