k-points along high symmetry lines
100
Line-mode
rec

